p tw 91 103
1 2
2 13
3 4
4 5
4 83
5 6
6 7
7 8
7 83
8 9
9 10
10 11
11 12
12 14
13 24
14 15
15 16
16 17
16 76
17 18
18 19
19 20
19 23
20 21
21 22
21 63
22 73
23 25
24 35
25 26
26 27
27 28
28 29
29 30
29 76
30 31
31 32
32 33
33 34
34 36
34 53
35 46
36 37
37 38
38 39
39 40
40 41
41 42
42 43
43 44
44 45
45 47
46 57
46 86
47 48
48 49
49 50
50 51
50 76
51 52
52 33
53 54
54 55
55 56
55 60
56 58
57 68
58 59
58 60
59 89
60 61
61 62
61 76
62 10
63 64
64 65
65 66
66 67
67 69
68 79
69 70
70 71
71 72
72 10
73 74
74 75
75 89
76 77
77 78
78 80
79 90
80 81
81 82
82 68
83 84
84 85
85 24
86 87
87 88
88 89
89 91
90 3
90 83
